c numero: 67
c nombre: n-50-d-0.5
c densidad: 0.5
p edges 50 639
e 1 2
e 1 4
e 1 5
e 1 7
e 1 8
e 1 9
e 1 10
e 1 12
e 1 13
e 1 14
e 1 15
e 1 17
e 1 21
e 1 23
e 1 27
e 1 29
e 1 30
e 1 31
e 1 34
e 1 35
e 1 37
e 1 39
e 1 40
e 1 41
e 1 43
e 1 44
e 1 47
e 1 48
e 1 50
e 2 4
e 2 5
e 2 8
e 2 9
e 2 12
e 2 13
e 2 14
e 2 15
e 2 18
e 2 26
e 2 27
e 2 29
e 2 30
e 2 32
e 2 34
e 2 35
e 2 37
e 2 40
e 2 45
e 2 49
e 3 4
e 3 7
e 3 9
e 3 14
e 3 19
e 3 22
e 3 23
e 3 24
e 3 26
e 3 27
e 3 29
e 3 34
e 3 35
e 3 37
e 3 38
e 3 39
e 3 40
e 3 42
e 3 43
e 3 45
e 3 48
e 4 8
e 4 11
e 4 12
e 4 13
e 4 17
e 4 19
e 4 22
e 4 24
e 4 27
e 4 29
e 4 31
e 4 33
e 4 34
e 4 36
e 4 39
e 4 41
e 4 44
e 4 45
e 4 46
e 4 47
e 4 49
e 5 7
e 5 9
e 5 10
e 5 11
e 5 12
e 5 14
e 5 15
e 5 16
e 5 18
e 5 19
e 5 21
e 5 23
e 5 25
e 5 29
e 5 30
e 5 31
e 5 34
e 5 35
e 5 36
e 5 38
e 5 39
e 5 40
e 5 43
e 5 44
e 5 47
e 5 49
e 6 7
e 6 9
e 6 11
e 6 14
e 6 20
e 6 21
e 6 22
e 6 24
e 6 25
e 6 28
e 6 29
e 6 30
e 6 31
e 6 32
e 6 33
e 6 36
e 6 37
e 6 42
e 6 44
e 6 45
e 6 46
e 6 47
e 6 49
e 7 8
e 7 9
e 7 13
e 7 14
e 7 15
e 7 16
e 7 19
e 7 22
e 7 23
e 7 24
e 7 26
e 7 27
e 7 28
e 7 30
e 7 31
e 7 34
e 7 37
e 7 42
e 7 47
e 7 48
e 8 9
e 8 10
e 8 13
e 8 14
e 8 16
e 8 22
e 8 26
e 8 30
e 8 32
e 8 33
e 8 35
e 8 36
e 8 37
e 8 39
e 8 40
e 8 41
e 8 45
e 8 47
e 8 49
e 9 11
e 9 12
e 9 15
e 9 17
e 9 22
e 9 24
e 9 26
e 9 27
e 9 29
e 9 31
e 9 32
e 9 33
e 9 35
e 9 36
e 9 38
e 9 39
e 9 40
e 9 45
e 10 11
e 10 12
e 10 13
e 10 17
e 10 20
e 10 23
e 10 24
e 10 27
e 10 28
e 10 33
e 10 34
e 10 35
e 10 37
e 10 39
e 10 46
e 10 49
e 10 50
e 11 14
e 11 15
e 11 16
e 11 19
e 11 21
e 11 23
e 11 25
e 11 27
e 11 30
e 11 31
e 11 32
e 11 34
e 11 35
e 11 36
e 11 38
e 11 42
e 11 43
e 11 45
e 11 48
e 11 49
e 11 50
e 12 13
e 12 18
e 12 19
e 12 21
e 12 23
e 12 25
e 12 28
e 12 33
e 12 37
e 12 38
e 12 39
e 12 40
e 12 41
e 12 42
e 12 43
e 12 44
e 12 46
e 12 49
e 12 50
e 13 14
e 13 15
e 13 16
e 13 17
e 13 19
e 13 20
e 13 23
e 13 24
e 13 27
e 13 28
e 13 29
e 13 31
e 13 32
e 13 36
e 13 38
e 13 39
e 13 43
e 13 45
e 13 46
e 13 47
e 13 49
e 13 50
e 14 17
e 14 21
e 14 22
e 14 26
e 14 27
e 14 30
e 14 33
e 14 35
e 14 36
e 14 38
e 14 44
e 14 45
e 14 46
e 14 47
e 14 48
e 14 49
e 14 50
e 15 16
e 15 18
e 15 19
e 15 21
e 15 22
e 15 25
e 15 27
e 15 29
e 15 30
e 15 31
e 15 32
e 15 33
e 15 35
e 15 36
e 15 37
e 15 38
e 15 41
e 15 42
e 15 45
e 15 47
e 15 48
e 15 50
e 16 19
e 16 20
e 16 23
e 16 25
e 16 26
e 16 27
e 16 29
e 16 31
e 16 34
e 16 36
e 16 38
e 16 39
e 16 42
e 16 43
e 16 44
e 16 45
e 16 47
e 16 48
e 17 18
e 17 19
e 17 20
e 17 22
e 17 24
e 17 26
e 17 28
e 17 29
e 17 30
e 17 37
e 17 38
e 17 41
e 17 44
e 17 46
e 17 47
e 17 48
e 17 49
e 17 50
e 18 20
e 18 22
e 18 23
e 18 24
e 18 25
e 18 27
e 18 29
e 18 30
e 18 31
e 18 34
e 18 37
e 18 38
e 18 39
e 18 41
e 18 42
e 18 43
e 18 44
e 18 45
e 18 46
e 18 49
e 18 50
e 19 20
e 19 22
e 19 23
e 19 24
e 19 26
e 19 27
e 19 28
e 19 29
e 19 33
e 19 34
e 19 36
e 19 40
e 19 41
e 19 42
e 19 43
e 19 44
e 20 23
e 20 25
e 20 26
e 20 27
e 20 30
e 20 31
e 20 33
e 20 38
e 20 41
e 20 43
e 20 45
e 20 47
e 20 49
e 20 50
e 21 24
e 21 25
e 21 27
e 21 28
e 21 31
e 21 32
e 21 33
e 21 35
e 21 37
e 21 38
e 21 40
e 21 41
e 21 42
e 21 44
e 21 45
e 21 46
e 21 47
e 21 48
e 21 50
e 22 23
e 22 24
e 22 25
e 22 26
e 22 28
e 22 29
e 22 30
e 22 32
e 22 33
e 22 35
e 22 36
e 22 37
e 22 40
e 22 41
e 22 42
e 22 44
e 22 46
e 22 47
e 22 48
e 23 24
e 23 28
e 23 30
e 23 32
e 23 33
e 23 34
e 23 35
e 23 37
e 23 39
e 23 41
e 23 42
e 23 43
e 23 45
e 23 47
e 24 27
e 24 30
e 24 31
e 24 33
e 24 34
e 24 36
e 24 38
e 24 39
e 24 41
e 24 44
e 24 45
e 24 46
e 24 47
e 25 26
e 25 27
e 25 28
e 25 29
e 25 31
e 25 33
e 25 36
e 25 37
e 25 38
e 25 41
e 25 43
e 25 44
e 25 46
e 25 47
e 25 48
e 25 49
e 26 27
e 26 28
e 26 29
e 26 31
e 26 32
e 26 33
e 26 34
e 26 35
e 26 36
e 26 37
e 26 39
e 26 40
e 26 45
e 26 46
e 26 48
e 27 28
e 27 30
e 27 33
e 27 35
e 27 36
e 27 38
e 27 39
e 27 43
e 27 46
e 27 47
e 27 48
e 28 32
e 28 33
e 28 35
e 28 36
e 28 37
e 28 39
e 28 40
e 28 41
e 28 48
e 28 50
e 29 32
e 29 35
e 29 38
e 29 40
e 29 42
e 29 45
e 29 46
e 29 47
e 29 49
e 29 50
e 30 31
e 30 33
e 30 36
e 30 42
e 30 43
e 30 45
e 30 50
e 31 32
e 31 36
e 31 38
e 31 40
e 31 41
e 31 42
e 31 43
e 31 44
e 31 45
e 31 46
e 31 47
e 31 50
e 32 33
e 32 35
e 32 36
e 32 39
e 32 41
e 32 42
e 32 43
e 32 45
e 32 47
e 32 48
e 32 49
e 33 34
e 33 35
e 33 38
e 33 39
e 33 40
e 33 43
e 33 44
e 33 45
e 33 46
e 33 47
e 33 49
e 33 50
e 34 36
e 34 38
e 34 39
e 34 40
e 34 43
e 34 48
e 34 49
e 35 36
e 35 38
e 35 40
e 35 42
e 35 43
e 35 45
e 35 47
e 35 48
e 35 49
e 36 37
e 36 38
e 36 39
e 36 41
e 36 42
e 36 44
e 36 46
e 36 50
e 37 43
e 37 46
e 37 47
e 37 48
e 38 39
e 38 40
e 38 44
e 38 45
e 38 47
e 38 49
e 39 41
e 39 42
e 39 43
e 39 44
e 39 45
e 39 46
e 40 41
e 40 43
e 40 47
e 40 48
e 40 49
e 41 42
e 41 43
e 41 44
e 41 46
e 41 47
e 41 49
e 41 50
e 42 45
e 42 47
e 42 49
e 42 50
e 43 45
e 43 46
e 43 47
e 43 48
e 44 46
e 44 47
e 44 48
e 44 50
e 45 46
e 45 47
e 47 49
e 48 49
